(set-logic QF_SLIA)
(set-option :produce-models true)
(declare-fun x () String)
(assert (str.in_re x (re.+ (re.range "1" "5"))))
(assert (= (mod (mod (str.to_int x) 80) 41) 6))
(assert (< (str.len x) 100))
(check-sat)
(get-model)